results_rootrelaxation/bin018_060_018.srr.sol
solution status: optimal solution found
objective value:                                    1
_var2686_                           0.189135806629577 	(obj:0)
_var2691_                            0.38952268036711 	(obj:0)
_var2724_                          0.0478367346293666 	(obj:0)
_var2726_                           0.130389432323462 	(obj:0)
_var2727_                           0.139514953882548 	(obj:1)
_var2737_                          0.0632041916949721 	(obj:0)
_var2755_                           0.136609335367808 	(obj:0)
_var2756_                          0.0937444321656252 	(obj:0)
_var2758_                           0.201166815312804 	(obj:0)
_var2760_                          0.0601913492213955 	(obj:0)
_var2770_                          0.0725557529738137 	(obj:0)
_var2782_                           0.052756080732688 	(obj:0)
_var2789_                          0.0929092011223923 	(obj:0)
_var2797_                          0.0922196659364272 	(obj:0)
_var2810_                          0.0394879135683985 	(obj:0)
_var2813_                          0.0195039100920676 	(obj:0)
_var2820_                           0.198084360840571 	(obj:0)
_var2823_                           0.136705899615614 	(obj:0)
_var2824_                           0.171591336575843 	(obj:0)
_var2828_                            0.10496513234358 	(obj:0)
_var2829_                         0.00113125624971334 	(obj:1)
_var2831_                          0.0207883865005361 	(obj:0)
_var2833_                           0.037074958966774 	(obj:0)
_var2835_                           0.169290954356539 	(obj:0)
_var2843_                           0.203629511161627 	(obj:0)
_var2844_                          0.0663931690388405 	(obj:0)
_var2846_                           0.213243108386563 	(obj:1)
_var2855_                          0.0202491220980074 	(obj:0)
_var2857_                           0.160690729911161 	(obj:0)
_var2862_                           0.133392025342624 	(obj:0)
_var2875_                           0.195872309653361 	(obj:0)
_var2876_                           0.237427891281416 	(obj:0)
_var2879_                          0.0446149042386036 	(obj:0)
_var2881_                           0.166266706566714 	(obj:0)
_var2888_                           0.167799815735572 	(obj:0)
_var2894_                          0.0523262473592819 	(obj:0)
_var2906_                           0.189135806629577 	(obj:0)
_var2909_                          0.0342253572741912 	(obj:0)
_var2910_                           0.278733290617844 	(obj:0)
_var2911_                           0.115083298444005 	(obj:0)
_var2912_                          0.0560636219604121 	(obj:0)
_var2918_                          0.0392263793445807 	(obj:0)
_var2926_                          0.0223139526899513 	(obj:0)
_var2931_                          0.0278849022882065 	(obj:1)
_var2934_                          0.0499690931376813 	(obj:0)
_var2935_                           0.250046525505333 	(obj:0)
_var2936_                           0.338718228775688 	(obj:0)
_var2937_                           0.116778659968991 	(obj:0)
_var2946_                          0.0678824617532167 	(obj:0)
_var2949_                           0.144174438618988 	(obj:0)
_var2951_                           0.317840164829083 	(obj:0)
_var2952_                          0.0567244485623714 	(obj:0)
_var2953_                           0.128763867578058 	(obj:0)
_var2956_                          0.0368938769860741 	(obj:0)
_var2957_                          0.0919423239956465 	(obj:0)
_var2960_                           0.115285277214732 	(obj:0)
_var2963_                           0.220732216554768 	(obj:0)
_var2965_                           0.131160773281814 	(obj:1)
_var2966_                           0.149461448937382 	(obj:0)
_var2968_                           0.274658367740746 	(obj:0)
_var2970_                           0.129326700853263 	(obj:0)
_var2971_                           0.108066393105692 	(obj:0)
_var2973_                          0.0068694055053124 	(obj:0)
_var2977_                            0.10196686755282 	(obj:0)
_var2980_                          0.0773708141625864 	(obj:0)
_var2981_                          0.0411589385488012 	(obj:0)
_var2982_                           0.123394056013404 	(obj:1)
_var2984_                          0.0400654071872023 	(obj:0)
_var2988_                           0.250516260597494 	(obj:0)
_var2989_                           0.278334471894277 	(obj:0)
_var2992_                           0.274975923551338 	(obj:0)
_var2993_                          0.0111393884120347 	(obj:0)
_var2998_                           0.131622097007068 	(obj:0)
_var2999_                           0.157532766208533 	(obj:1)
_var3001_                           0.302160077077409 	(obj:0)
_var3006_                           0.104794019904204 	(obj:0)
_var3011_                          0.0793679828879068 	(obj:0)
_var3016_                           0.188541813154262 	(obj:1)
_var3017_                           0.131020160727611 	(obj:0)
_var3022_                           0.025650899415632 	(obj:0)
_var3023_                          0.0656707802370805 	(obj:0)
_var3024_                          0.0938142437151725 	(obj:0)
_var3027_                           0.115408669654461 	(obj:0)
_var3030_                          0.0450803434538908 	(obj:0)
_var3032_                           0.088015204973773 	(obj:0)
_var3037_                           0.326008233314435 	(obj:0)
_var3038_                           0.160336584544196 	(obj:0)
_var3039_                         0.00713837598139035 	(obj:0)
_var3040_                          0.0845111454894144 	(obj:0)
_var3041_                         0.00611625232748453 	(obj:0)
_var3046_                             0.2455799752341 	(obj:0)
_var3047_                           0.132760361943502 	(obj:0)
_var3049_                          0.0703819524405155 	(obj:0)
_var3051_                          0.0993075234320598 	(obj:0)
_var3054_                          0.0899354294246597 	(obj:0)
_var3056_                         3.04093968086783e-05 	(obj:0)
_var3057_                          0.0383161995127423 	(obj:0)
_var3061_                           0.178290104621281 	(obj:0)
_var3065_                          0.0294838492949729 	(obj:0)
_var3068_                           0.128847563711022 	(obj:0)
_var3069_                           0.186703491877329 	(obj:0)
_var3071_                          0.0782973694963845 	(obj:0)
_var3072_                          0.0800243822755824 	(obj:0)
_var3074_                           0.178687371638235 	(obj:0)
_var3078_                            0.12974370306098 	(obj:0)
_var3079_                          0.0487373140535233 	(obj:0)
_var3080_                            0.12062038094389 	(obj:0)
_var3083_                          0.0474618997423135 	(obj:0)
_var3084_                          0.0175963705349569 	(obj:1)
_var3086_                           0.172876439458379 	(obj:0)
_var3087_                           0.126903927976767 	(obj:0)
_var3089_                          0.0394455944603174 	(obj:0)
_var3090_                           0.103908901516624 	(obj:0)
_var3092_                           0.232387295516175 	(obj:0)
_var3096_                          0.0759359120247865 	(obj:0)
_var3098_                           0.106304207985529 	(obj:0)
_var3099_                          0.0530632732996943 	(obj:0)
_var3100_                           0.124509812486824 	(obj:0)
_var3102_                         0.00164728312054615 	(obj:0)
_var3104_                          0.0656449345752284 	(obj:0)
_var3106_                          0.0736546571928714 	(obj:0)
_var3107_                         0.00133022331271374 	(obj:0)
_var3108_                           0.196150224683794 	(obj:0)
_var3110_                           0.175662652307537 	(obj:0)
_var3111_                           0.304637276556916 	(obj:0)
_var3114_                          0.0264823670240653 	(obj:0)
_var3119_                          0.0607690537478839 	(obj:0)
_var3120_                           0.144985146038681 	(obj:0)
_var3121_                         0.00704988984446903 	(obj:0)
_var3123_                           0.049729984320023 	(obj:0)
_var3124_                           0.162018893294487 	(obj:0)
_var3126_                           0.196725363095412 	(obj:0)
_var3127_                           0.309696413299199 	(obj:0)
_var3128_                           0.168046801567197 	(obj:0)
_var3129_                          0.0385029682342682 	(obj:0)
_var3130_                          0.0149332930722492 	(obj:0)
_var3131_                          0.0149612349066364 	(obj:0)
_var3132_                          0.0958124797099943 	(obj:0)
_var3137_                          0.0265861161256918 	(obj:0)
_var3138_                           0.105641475533559 	(obj:0)
_var3139_                          0.0699305746527705 	(obj:0)
_var3141_                            0.05527002905362 	(obj:0)
_var3142_                          0.0346529705584908 	(obj:0)
_var3143_                          0.0613093862782259 	(obj:0)
_var3144_                            0.14075792869622 	(obj:0)
_var3147_                          0.0460259648350089 	(obj:0)
_var3148_                          0.0761948599920485 	(obj:0)
_var3151_                          0.0232972513310445 	(obj:0)
_var3153_                          0.0990019110457262 	(obj:0)
_var3154_                           0.013615269798345 	(obj:0)
_var3155_                          0.0522921463624666 	(obj:0)
_var3159_                          0.0188828160817631 	(obj:0)
